50

C      4.163161     3.985633    10.438426
C      5.337201     4.518871     9.887654
C      6.357583     4.988868    10.702337
C      6.241540     4.892569    12.105492
C      6.288757     5.451679    14.302020
C      5.770163     6.906226    14.406929
C      4.325621     7.101699    14.038109
C      3.408478     6.207699    14.190554
C      2.805852     3.699610    14.151214
C      2.725822     3.644993    12.531684
C      4.073527     3.948263    11.849777
C      5.102713     4.332022    12.652985
C      5.149930     4.409636    14.162688
C      3.746204     4.814955    14.626582
C      5.540477     3.080134    14.795419
C      4.460872     2.002159    14.503642
C      2.184019     1.407117    14.651170
C      8.456770     5.067920     9.628661
C      9.474752     6.000727     9.053302
C      7.900562     7.994263    14.021717
C      8.615229     8.674105    12.956237
N      3.145179     2.486529    14.852791
O      7.422783     5.701769    10.130256
O      7.108265     5.346756    13.069342
O      8.550405     3.870649     9.648331
O      6.585669     7.823224    13.631587
O      8.281504     7.498394    15.075722
H      3.355158     3.616180     9.806971
H      5.449972     4.564874     8.804480
H      6.843608     5.240789    15.216222
H      5.850320     7.129782    15.470742
H      4.034230     8.062520    13.613827
H      2.368221     6.470542    13.998517
H      1.765716     3.892417    14.413975
H      2.402905     2.647482    12.233697
H      1.993858     4.379371    12.195504
H      3.653406     4.888789    15.710111
H      6.494948     2.753014    14.383015
H      5.635867     3.209975    15.873446
H      4.480607     1.754648    13.442299
H      4.680002     1.109215    15.089076
H      2.039150     1.244425    13.583160
H      1.232847     1.677222    15.109881
H      2.562188     0.493513    15.109881
H      9.430567     5.960239     7.964950
H     10.468991     5.704652     9.387857
H      9.266457     7.016988     9.387857
H      8.247660     8.324447    11.991492
H      9.680662     8.459270    13.038700
H      8.453843     9.748933    13.038700
