27

C      4.163161     3.985633    10.438426
C      5.337201     4.518871     9.887654
C      6.357583     4.988868    10.702337
C      6.241540     4.892569    12.105492
C      6.288757     5.451679    14.302020
C      5.770163     6.906226    14.406929
C      4.325621     7.101699    14.038109
C      3.408478     6.207699    14.190554
C      2.805852     3.699610    14.151214
C      2.725822     3.644993    12.531684
C      4.073527     3.948263    11.849777
C      5.102713     4.332022    12.652985
C      5.149930     4.409636    14.162688
C      3.746204     4.814955    14.626582
C      5.540477     3.080134    14.795419
C      4.460872     2.002159    14.503642
C      2.184019     1.407117    14.651170
C      8.456770     5.067920     9.628661
C      9.474752     6.000727     9.053302
C      7.900562     7.994263    14.021717
C      8.615229     8.674105    12.956237
N      3.145179     2.486529    14.852791
O      7.422783     5.701769    10.130256
O      7.108265     5.346756    13.069342
O      8.550405     3.870649     9.648331
O      6.585669     7.823224    13.631587
O      8.281504     7.498394    15.075722
